This is Ipopt version 3.10.1, running with linear solver mumps.

Number of nonzeros in equality constraint Jacobian...:      177
Number of nonzeros in inequality constraint Jacobian.:        0
Number of nonzeros in Lagrangian Hessian.............:     3324

Total number of variables............................:       90
                     variables with only lower bounds:        0
                variables with lower and upper bounds:       90
                     variables with only upper bounds:        0
Total number of equality constraints.................:       59
Total number of inequality constraints...............:        0
        inequality constraints with only lower bounds:        0
   inequality constraints with lower and upper bounds:        0
        inequality constraints with only upper bounds:        0

iter    objective    inf_pr   inf_du lg(mu)  ||d||  lg(rg) alpha_du alpha_pr  ls
   0 -5.4531920e-04 7.19e-03 3.69e-04  -1.0 0.00e+00    -  0.00e+00 0.00e+00   0
   1 -5.2805898e-04 2.22e-16 6.56e-04  -1.7 1.89e-02    -  9.94e-01 1.00e+00h  1
   2 -4.8592833e-04 2.22e-16 1.94e-03  -2.5 4.35e-02    -  9.83e-01 1.00e+00f  1
   3 -4.9613241e-04 8.88e-12 5.18e-05  -3.8 4.66e-02    -  9.93e-01 1.00e+00f  1
   4 -1.2173749e-04 4.69e-12 2.01e-03  -5.7 7.29e-01  -4.0 2.36e-01 4.72e-01h  1
   5 -3.3905610e-04 8.88e-16 5.52e-04  -5.7 1.28e-01    -  6.41e-01 1.00e+00f  1
   6 -2.5911295e-03 3.85e-13 3.66e-03  -5.7 2.97e-01  -2.7 6.01e-01 7.87e-01f  1
   7 -2.5839993e-03 3.84e-13 3.69e-03  -5.7 1.27e-01  -2.2 1.24e-01 1.95e-03f 10
   8 -3.9466870e-03 3.57e-13 1.84e-02  -5.7 1.47e+00  -1.8 3.22e-01 7.01e-02f  1
   9 -5.2020249e-03 9.18e-13 4.85e-03  -5.7 1.37e-01  -1.4 9.58e-01 1.81e-01f  1
iter    objective    inf_pr   inf_du lg(mu)  ||d||  lg(rg) alpha_du alpha_pr  ls
  10 -6.0941918e-03 5.55e-13 4.99e-03  -5.7 3.82e-02  -1.0 1.00e+00 3.96e-01f  1
  11 -6.0929394e-03 5.55e-13 5.30e-03  -5.7 2.77e+00  -1.4 1.13e-02 6.41e-06f 16
  12 -6.0850098e-03 5.54e-13 5.97e-03  -5.7 1.15e-01  -1.9 3.44e-01 9.77e-04f 11
  13 -3.9502602e-04 2.22e-16 3.94e-02  -5.7 4.32e-01  -1.5 6.00e-02 1.00e+00h  1
  14 -4.8066597e-04 4.44e-16 2.90e-04  -5.7 2.71e-02  -2.0 9.82e-01 1.00e+00f  1
  15 -1.2825663e-03 2.47e-13 1.07e-03  -5.7 1.83e-01  -2.4 1.00e+00 6.35e-01f  1
  16 -1.5152648e-03 3.47e-13 2.58e-03  -5.7 2.22e-01  -2.0 1.00e+00 7.46e-02f  1
  17 -1.5076701e-03 3.45e-13 1.15e-03  -5.7 1.97e-01  -2.5 4.32e-01 3.91e-03f  9
  18 -7.3926541e-03 1.38e-12 8.68e-03  -5.7 7.73e-01  -2.1 5.10e-01 1.83e-01f  1
  19 -7.8133719e-03 1.05e-12 2.41e-02  -5.7 3.95e-02  -0.7 1.00e+00 2.40e-01f  1
iter    objective    inf_pr   inf_du lg(mu)  ||d||  lg(rg) alpha_du alpha_pr  ls
  20 -8.8155273e-03 9.66e-13 2.19e-02  -5.7 1.71e-01  -1.2 1.00e+00 8.07e-02f  1
  21 -1.1852832e-02 2.22e-16 6.51e-03  -5.7 3.63e-02  -0.8 1.00e+00 1.00e+00f  1
  22 -1.5740281e-02 2.34e-12 2.72e-02  -5.7 2.42e+00  -1.3 8.75e-02 1.39e-02f  1
  23 -1.5928649e-02 2.29e-12 2.47e-02  -5.7 7.78e-02  -0.8 1.00e+00 2.17e-02f  1
  24 -1.9476922e-02 4.69e-12 5.33e-02  -5.7 1.60e+01  -1.3 1.58e-02 2.04e-03f  1
  25 -2.0687709e-02 5.31e-12 2.58e-02  -5.7 1.11e-01  -0.9 1.00e+00 1.16e-01f  1
  26 -2.6601837e-02 8.86e-12 4.07e-02  -5.7 3.55e+00  -1.4 6.30e-02 1.86e-02f  1
  27 -2.7951530e-02 8.16e-12 3.03e-02  -5.7 1.69e-01  -1.0 1.00e+00 7.87e-02f  1
  28 -2.3317324e-02 6.78e-12 2.79e-02  -5.7 8.83e-01  -1.4 4.20e-02 1.70e-01h  1
  29 -3.8520285e-02 2.22e-16 1.87e-02  -5.7 1.40e-01  -1.0 1.00e+00 1.00e+00f  1
iter    objective    inf_pr   inf_du lg(mu)  ||d||  lg(rg) alpha_du alpha_pr  ls
  30 -3.9367956e-02 2.22e-16 1.96e-02  -5.7 1.22e+00  -1.5 9.86e-03 3.63e-02f  1
  31 -4.0214708e-02 8.61e-13 6.43e-02  -5.7 1.78e-01  -1.1 8.80e-01 3.29e-02f  1
  32 -4.1715551e-02 6.44e-13 3.55e-02  -5.7 4.45e-02  -0.6 6.40e-01 2.53e-01f  1
  33 -4.9893461e-02 5.02e-13 3.91e-02  -5.7 2.81e-01  -1.1 7.80e-01 2.20e-01f  1
  34 -5.6281358e-02 6.26e-12 1.35e-02  -5.7 5.86e-02  -0.7 9.13e-01 5.81e-01f  1
  35 -7.0317999e-02 6.04e-12 2.46e-02  -5.7 2.13e+00  -1.2 6.25e-02 3.45e-02f  1
  36 -7.2811527e-02 5.59e-12 3.96e-02  -5.7 1.35e-01  -0.7 6.12e-01 7.48e-02f  1
  37 -7.2810834e-02 5.59e-12 3.94e-02  -5.7 1.72e+00  -1.2 2.04e-03 6.10e-06f  4
  38 -7.2797311e-02 5.59e-12 2.93e-02  -5.7 6.92e+01  -0.8 9.19e-04 1.55e-06f  3
  39 -7.6642952e-02 2.77e-12 3.57e-02  -5.7 3.53e-02  -0.4 1.00e+00 5.04e-01f  1
iter    objective    inf_pr   inf_du lg(mu)  ||d||  lg(rg) alpha_du alpha_pr  ls
  40 -7.9746916e-02 4.97e-12 7.24e-02  -5.7 1.44e-01  -0.8 7.80e-01 9.48e-02f  1
  41 -7.5940929e-02 4.91e-12 7.91e-02  -5.7 2.41e+00  -1.3 3.34e-03 1.24e-02h  1
  42 -7.7717230e-02 4.51e-12 6.00e-02  -5.7 1.23e-01  -0.9 7.52e-01 8.23e-02f  1
  43 -8.2819956e-02 1.72e-12 3.50e-02  -5.7 4.68e-02  -0.5 1.00e+00 6.19e-01f  1
  44 -8.7255628e-02 1.55e-12 5.64e-02  -5.7 2.05e-01  -0.9 6.49e-01 9.93e-02f  1
  45 -9.3969324e-02 8.16e-13 2.26e-02  -5.7 5.99e-02  -0.5 1.00e+00 4.73e-01f  1
  46 -1.5248295e-01 2.21e-11 9.08e-02  -5.7 3.20e+00  -1.0 1.10e-02 5.34e-02f  1
  47 -1.9559365e-01 3.56e-11 1.66e-01  -5.7 4.98e-01  -0.6 1.67e-02 1.33e-01f  1
  48 -2.0832220e-01 3.13e-11 9.44e-02  -5.7 1.33e-01  -0.1 2.65e-01 1.23e-01f  1
  49 -2.0831788e-01 3.13e-11 1.39e-01  -5.7 7.27e-01  -0.6 4.78e-02 7.33e-06f  7
iter    objective    inf_pr   inf_du lg(mu)  ||d||  lg(rg) alpha_du alpha_pr  ls
  50 -2.1256995e-01 3.04e-11 1.44e-01  -5.7 1.84e-01  -0.2 6.25e-03 2.81e-02f  1
  51 -2.3688548e-01 1.18e-11 1.70e-01  -5.7 4.45e-02   0.2 1.03e-01 6.10e-01f  1
  52 -2.3681359e-01 1.17e-11 1.66e-01  -5.7 1.67e-01  -0.2 2.10e-02 7.99e-03f  3
  53 -2.4059750e-01 1.07e-11 9.92e-02  -5.7 4.88e-02   0.2 3.76e-01 8.53e-02f  1
  54 -2.4934725e-01 1.36e-11 9.09e-02  -5.7 2.24e-01  -0.3 1.68e-02 4.98e-02f  1
  55 -2.5018991e-01 1.33e-11 7.82e-02  -5.7 5.51e-02   0.1 1.77e-01 1.83e-02f  1
  56 -2.5612969e-01 1.30e-11 1.82e-01  -5.7 3.17e-01  -0.3 4.29e-01 2.32e-02f  1
  57 -2.5779191e-01 1.23e-11 3.38e-01  -5.7 5.48e-02   0.1 1.00e+00 4.99e-02f  1
  58 -2.9715203e-01 9.40e-12 4.38e-01  -5.7 2.47e-01  -0.4 1.00e+00 2.39e-01f  1
  59 -3.0412184e-01 9.32e-12 9.24e-01  -5.7 1.58e+00  -0.9 4.39e-01 8.52e-03f  1
iter    objective    inf_pr   inf_du lg(mu)  ||d||  lg(rg) alpha_du alpha_pr  ls
  60 -2.9922533e-01 9.05e-12 8.56e-01  -5.7 2.40e+00  -1.3 6.16e-02 2.91e-02h  1
  61 -2.9939758e-01 7.20e-12 4.46e-01  -5.7 2.93e-02  -1.8 5.68e-01 2.04e-01f  1
  62 -2.9938486e-01 7.03e-12 3.90e-01  -5.7 1.62e-02    -  1.85e-01 2.37e-02f  4
  63 -2.9917857e-01 1.13e-12 1.41e-01  -5.7 1.59e-02    -  4.99e-01 8.40e-01h  1
  64 -2.9917373e-01 6.78e-13 1.48e-01  -5.7 2.68e-03  -2.3 8.47e-01 3.98e-01f  2
  65 -2.9917415e-01 2.22e-16 4.68e-06  -5.7 1.41e-03    -  1.00e+00 1.00e+00h  1
  66 -2.9928511e-01 3.66e-15 7.76e-07  -8.6 5.84e-05  -1.9 1.00e+00 1.00e+00f  1
  67 -2.9928507e-01 8.88e-16 1.27e-07  -8.6 3.55e-06  -1.4 1.00e+00 1.00e+00h  1
  68 -2.9928507e-01 3.33e-16 9.27e-12  -8.6 1.99e-06    -  1.00e+00 1.00e+00h  1

Number of Iterations....: 68

                                   (scaled)                 (unscaled)
Objective...............:  -2.9928507184100267e-01   -2.9928507184100267e-01
Dual infeasibility......:   9.2737971530133676e-12    9.2737971530133676e-12
Constraint violation....:   3.3306690738754696e-16    3.3306690738754696e-16
Complementarity.........:   2.5181025175281265e-09    2.5181025175281265e-09
Overall NLP error.......:   2.5181025175281265e-09    2.5181025175281265e-09


Number of objective function evaluations             = 129
Number of objective gradient evaluations             = 69
Number of equality constraint evaluations            = 129
Number of inequality constraint evaluations          = 0
Number of equality constraint Jacobian evaluations   = 1
Number of inequality constraint Jacobian evaluations = 0
Number of Lagrangian Hessian evaluations             = 68
Total CPU secs in IPOPT (w/o function evaluations)   =      0.210
Total CPU secs in NLP function evaluations           =      2.140

EXIT: Optimal Solution Found.
